sat
(
(define-fun sym807 () String "K")
(define-fun sym205 () String "Y")
(define-fun sym547 () String "K")
(define-fun sym1659 () String "K")
(define-fun sym2548 () String "K")
(define-fun sym1446 () String "K")
(define-fun sym2751 () String "K")
(define-fun sym1233 () String "K")
(define-fun sym1872 () String "H")
(define-fun sym2301 () String "K")
(define-fun sym1020 () String "K")
(define-fun sym161 () String "A")
(define-fun sym2095 () String "K")
)
